Route #1: 89 98 99 62 71
Route #2: 31 46 35
Route #3: 14 49 6 37 87
Route #4: 30 85 11 79
Route #5: 25 65 78 42 28
Route #6: 82 60 59
Route #7: 75 93
Route #8: 38 47 26 48 96 64 34
Route #9: 74 13 4
Route #10: 63 77 3
Route #11: 19 97 27
Route #12: 58 12 5
Route #13: 7 2 45 43 29 36 72 57
Route #14: 52 91 50
Route #15: 83 51 81
Route #16: 18 10 39
Route #17: 15 22 41 20
Route #18: 92 9 86
Route #19: 23 61 100
Route #20: 24 95 73 53 33 32
Route #21: 17 8
Route #22: 66 84 90 68
Route #23: 21 56 94 80
Route #24: 69 16 55 76
Route #25: 40 88 67 44
Route #26: 1 70 54
Cost 27591.0000
Time 16.0006